(set-logic QF_SLIA)
(declare-fun var0 () String)
(assert (not (str.in_re var0 (re.++ ((_ re.loop 1 814) (re.++ (re.union (str.to_re "MR") (re.union (str.to_re "gF!") (re.union (str.to_re "\\^") (str.to_re "\u0022x#")))) (re.++ (re.union (str.to_re "1") (re.union (str.to_re "6U") (re.union (str.to_re "A5") (str.to_re "B@")))) (re.++ (re.union (str.to_re "G") (re.union (str.to_re "on") (re.union (str.to_re "w") (str.to_re "E2")))) (re.union (str.to_re "0") (re.union (str.to_re "1") (re.union (str.to_re "i") (str.to_re "*")))))))) (re.++ ((_ re.loop 19 576) (re.++ (re.union (str.to_re "IYv") (re.union (str.to_re "?") (re.union (str.to_re "+") (str.to_re "eB")))) (re.++ (re.union (str.to_re "kd") (re.union (str.to_re "B") (re.union (str.to_re "+X") (str.to_re "Y@")))) (re.++ (re.union (str.to_re "g>") (re.union (str.to_re "#E") (re.union (str.to_re "0L,") (str.to_re "LZ")))) (re.union (str.to_re "N") (re.union (str.to_re "!Z") (re.union (str.to_re "T") (str.to_re "J)X")))))))) (re.++ ((_ re.loop 15 571) (re.++ (re.union (str.to_re "W`D") (re.union (str.to_re "J") (re.union (str.to_re "nw") (str.to_re "6b")))) (re.++ (re.union (str.to_re "E#%") (re.union (str.to_re "F") (re.union (str.to_re "|o") (str.to_re "<R")))) (re.++ (re.union (str.to_re "2") (re.union (str.to_re "B_") (re.union (str.to_re "'>") (str.to_re "+")))) (re.union (str.to_re "4") (re.union (str.to_re "0u") (re.union (str.to_re ".") (str.to_re "?")))))))) ((_ re.loop 19 278) (re.++ (re.union (str.to_re "9IU") (re.union (str.to_re "6eD") (re.union (str.to_re "B") (str.to_re "ff")))) (re.++ (re.union (str.to_re "?.") (re.union (str.to_re "J") (re.union (str.to_re "#") (str.to_re "oVq")))) (re.++ (re.union (str.to_re "C\u0022") (re.union (str.to_re "E") (re.union (str.to_re "yc") (str.to_re "07<")))) (re.union (str.to_re "429") (re.union (str.to_re "eXu") (re.union (str.to_re ")") (str.to_re "`1f"))))))))))))))
(assert (not (str.in_re var0 (re.++ ((_ re.loop 0 837) (re.++ (re.union (str.to_re "bH`") (re.union (str.to_re "B?") (re.union (str.to_re "R") (str.to_re "v\u0022T")))) (re.++ (re.union (str.to_re ">") (re.union (str.to_re "ZA6") (re.union (str.to_re "3)") (str.to_re ";J")))) (re.++ (re.union (str.to_re "2XI") (re.union (str.to_re "s") (re.union (str.to_re "2") (str.to_re "J(_")))) (re.union (str.to_re "Q{") (re.union (str.to_re "C#I") (re.union (str.to_re "$\\W") (str.to_re ":")))))))) (re.++ ((_ re.loop 9 750) (re.++ (re.union (str.to_re ":uK") (re.union (str.to_re "h") (re.union (str.to_re "f") (str.to_re "JF2")))) (re.++ (re.union (str.to_re "%-?") (re.union (str.to_re "{") (re.union (str.to_re "OMr") (str.to_re "Ser")))) (re.++ (re.union (str.to_re ">") (re.union (str.to_re "4+") (re.union (str.to_re "Kf") (str.to_re "y")))) (re.union (str.to_re "\u0022S^") (re.union (str.to_re "W~L") (re.union (str.to_re "PCX") (str.to_re "H*d")))))))) (re.++ ((_ re.loop 19 756) (re.++ (re.union (str.to_re "LI<") (re.union (str.to_re "J") (re.union (str.to_re "xS2") (str.to_re "&EF")))) (re.++ (re.union (str.to_re "*") (re.union (str.to_re "j") (re.union (str.to_re "):") (str.to_re "6-")))) (re.++ (re.union (str.to_re "jY9") (re.union (str.to_re "Bx") (re.union (str.to_re ">") (str.to_re "E=F")))) (re.union (str.to_re "fG~") (re.union (str.to_re "oK") (re.union (str.to_re "l{") (str.to_re "s4h")))))))) ((_ re.loop 9 869) (re.++ (re.union (str.to_re "k6T") (re.union (str.to_re "&") (re.union (str.to_re "z?c") (str.to_re "P/")))) (re.++ (re.union (str.to_re "2WX") (re.union (str.to_re "[") (re.union (str.to_re "m") (str.to_re "@X")))) (re.++ (re.union (str.to_re "l") (re.union (str.to_re "E?") (re.union (str.to_re "XEx") (str.to_re "8")))) (re.union (str.to_re "@") (re.union (str.to_re "0]#") (re.union (str.to_re "i") (str.to_re "M0c"))))))))))))))
(assert (not (str.in_re var0 (re.++ (re.* re.allchar) (re.++ (re.union (str.to_re "<") (re.union (str.to_re ">") (re.union (str.to_re "'") (re.union (str.to_re "\u0022") (str.to_re "&"))))) (re.* re.allchar))))))
(assert (<= 50 (str.len var0)))
(check-sat)
(get-model)
